benchmark/results/graph__10-1000-0.10-04_9/graph__10-1000-0.10-04_9_Quinton_Benders_sub.lp
\ This file has been generated by DOcplex
\ ENCODING=ISO-8859-1
\Problem name: Quinton Benders_dual_sub

Minimize
 obj: 0.001264222503 pi_nr_a0 + 0.001402524544 pi_nr_a1
      + 0.001795332136 pi_nr_a2 + 0.000971817298 pi_nr_a3
      + 0.001127395716 pi_nr_a4 + 0.000938086304 pi_nr_a5
      + 0.001237623762 pi_nr_a6 + 0.001026694045 pi_nr_a7
      + 0.000958772771 pi_nr_a8 + 0.001353179973 pi_nr_a9 + pi_p_a6_a1
      + pi_p_a5_a8 + pi_p_a5_a9 + pi_p_a8_a3 + pi_p_a4_a2 + pi_p_a4_a3
      + pi_p_a8_a1 + pi_p_a6_a9 + 3819 pi_d_a0_a1_proc_2
      + 3819 pi_d_a0_a1_proc_3 + 2546 pi_d_a0_a1_proc_0 + 2546 pi_d_a0_a1_proc_1
      + 1274 pi_d_a1_a0_proc_2 + 1274 pi_d_a1_a0_proc_3 + pi_d_a1_a0_proc_0
      + pi_d_a1_a0_proc_1 + 3820 pi_d_a0_a2_proc_2 + 2547 pi_d_a0_a2_proc_3
      + 3820 pi_d_a0_a2_proc_0 + 2547 pi_d_a0_a2_proc_1 + 1273 pi_d_a2_a0_proc_2
      + 1273 pi_d_a2_a0_proc_0 + 3820 pi_d_a0_a3_proc_2 + 3820 pi_d_a0_a3_proc_3
      + 2547 pi_d_a0_a3_proc_0 + 1273 pi_d_a3_a0_proc_2 + 1273 pi_d_a3_a0_proc_3
      + 2546 pi_d_a0_a4_proc_2 + 3819 pi_d_a0_a4_proc_3 + 3819 pi_d_a0_a4_proc_0
      + pi_d_a4_a0_proc_2 + 1274 pi_d_a4_a0_proc_3 + 1274 pi_d_a4_a0_proc_0
      + 2546 pi_d_a0_a5_proc_2 + 2546 pi_d_a0_a5_proc_3 + 2546 pi_d_a0_a5_proc_0
      + 2547 pi_d_a5_a0_proc_2 + 2547 pi_d_a5_a0_proc_3 + 2547 pi_d_a5_a0_proc_0
      + pi_d_a5_a0_proc_1 + 1273 pi_d_a0_a6_proc_0 + 2547 pi_d_a6_a0_proc_3
      + 3820 pi_d_a6_a0_proc_0 + 2547 pi_d_a6_a0_proc_1 + 2546 pi_d_a0_a7_proc_3
      + 2546 pi_d_a0_a7_proc_0 + 2547 pi_d_a7_a0_proc_3 + 2547 pi_d_a7_a0_proc_0
      + pi_d_a7_a0_proc_1 + 2547 pi_d_a0_a8_proc_2 + 2547 pi_d_a0_a8_proc_3
      + 2547 pi_d_a0_a8_proc_0 + pi_d_a0_a8_proc_1 + 2546 pi_d_a8_a0_proc_2
      + 2546 pi_d_a8_a0_proc_3 + 2546 pi_d_a8_a0_proc_0 + 1274 pi_d_a0_a9_proc_2
      + 1274 pi_d_a0_a9_proc_3 + pi_d_a0_a9_proc_0 + 3819 pi_d_a9_a0_proc_2
      + 3819 pi_d_a9_a0_proc_3 + 2546 pi_d_a9_a0_proc_0 + 3819 pi_d_a1_a2_proc_2
      + 2546 pi_d_a1_a2_proc_3 + 2546 pi_d_a1_a2_proc_0 + 3819 pi_d_a1_a2_proc_1
      + 1274 pi_d_a2_a1_proc_2 + pi_d_a2_a1_proc_3 + pi_d_a2_a1_proc_0
      + 1274 pi_d_a2_a1_proc_1 + 2547 pi_d_a1_a3_proc_2 + 2547 pi_d_a1_a3_proc_3
      + pi_d_a1_a3_proc_0 + 2546 pi_d_a3_a1_proc_2 + 2546 pi_d_a3_a1_proc_3
      + 1273 pi_d_a1_a4_proc_3 + 2547 pi_d_a4_a1_proc_2 + 3820 pi_d_a4_a1_proc_3
      + 2547 pi_d_a4_a1_proc_0 + 3819 pi_d_a1_a5_proc_2 + 3819 pi_d_a1_a5_proc_3
      + 2546 pi_d_a1_a5_proc_0 + 2546 pi_d_a1_a5_proc_1 + 1274 pi_d_a5_a1_proc_2
      + 1274 pi_d_a5_a1_proc_3 + pi_d_a5_a1_proc_0 + pi_d_a5_a1_proc_1
      + 2546 pi_d_a1_a6_proc_3 + 2546 pi_d_a1_a6_proc_0 + 3819 pi_d_a1_a6_proc_1
      + pi_d_a6_a1_proc_3 + pi_d_a6_a1_proc_0 + 1274 pi_d_a6_a1_proc_1
      + 3819 pi_d_a1_a7_proc_3 + 2546 pi_d_a1_a7_proc_0 + 2546 pi_d_a1_a7_proc_1
      + 1274 pi_d_a7_a1_proc_3 + pi_d_a7_a1_proc_0 + pi_d_a7_a1_proc_1
      + 3006 pi_d_a1_a8_proc_2 + 3006 pi_d_a1_a8_proc_3 + 1733 pi_d_a1_a8_proc_0
      + 1733 pi_d_a1_a8_proc_1 + 2087 pi_d_a8_a1_proc_2 + 2087 pi_d_a8_a1_proc_3
      + 814 pi_d_a8_a1_proc_0 + 814 pi_d_a8_a1_proc_1 + 2546 pi_d_a1_a9_proc_2
      + 2546 pi_d_a1_a9_proc_3 + 2547 pi_d_a9_a1_proc_2 + 2547 pi_d_a9_a1_proc_3
      + pi_d_a9_a1_proc_0 + 3820 pi_d_a2_a3_proc_2 + 2547 pi_d_a2_a3_proc_3
      + 2547 pi_d_a2_a3_proc_0 + 1273 pi_d_a3_a2_proc_2 + 2546 pi_d_a2_a4_proc_2
      + 2546 pi_d_a2_a4_proc_3 + 3819 pi_d_a2_a4_proc_0 + pi_d_a4_a2_proc_2
      + pi_d_a4_a2_proc_3 + 1274 pi_d_a4_a2_proc_0 + 3818 pi_d_a2_a5_proc_2
      + 2545 pi_d_a2_a5_proc_3 + 3818 pi_d_a2_a5_proc_0 + 2545 pi_d_a2_a5_proc_1
      + 1275 pi_d_a5_a2_proc_2 + 2 pi_d_a5_a2_proc_3 + 1275 pi_d_a5_a2_proc_0
      + 2 pi_d_a5_a2_proc_1 + 2546 pi_d_a2_a6_proc_0 + 2546 pi_d_a2_a6_proc_1
      + pi_d_a6_a2_proc_3 + 2547 pi_d_a6_a2_proc_0 + 2547 pi_d_a6_a2_proc_1
      + 2546 pi_d_a2_a7_proc_3 + 3819 pi_d_a2_a7_proc_0 + 2546 pi_d_a2_a7_proc_1
      + pi_d_a7_a2_proc_3 + 1274 pi_d_a7_a2_proc_0 + pi_d_a7_a2_proc_1
      + 1274 pi_d_a2_a8_proc_2 + pi_d_a2_a8_proc_3 + 1274 pi_d_a2_a8_proc_0
      + pi_d_a2_a8_proc_1 + 3819 pi_d_a8_a2_proc_2 + 2546 pi_d_a8_a2_proc_3
      + 3819 pi_d_a8_a2_proc_0 + 2546 pi_d_a8_a2_proc_1 + 3378 pi_d_a2_a9_proc_2
      + 2105 pi_d_a2_a9_proc_3 + 2105 pi_d_a2_a9_proc_0 + 1715 pi_d_a9_a2_proc_2
      + 442 pi_d_a9_a2_proc_3 + 442 pi_d_a9_a2_proc_0 + 2545 pi_d_a3_a4_proc_2
      + 3818 pi_d_a3_a4_proc_3 + 2545 pi_d_a3_a4_proc_0 + 2 pi_d_a4_a3_proc_2
      + 1275 pi_d_a4_a3_proc_3 + 2 pi_d_a4_a3_proc_0 + 3614 pi_d_a3_a5_proc_2
      + 3614 pi_d_a3_a5_proc_3 + 2341 pi_d_a3_a5_proc_0 + 1479 pi_d_a5_a3_proc_2
      + 1479 pi_d_a5_a3_proc_3 + 206 pi_d_a5_a3_proc_0 + 2546 pi_d_a3_a6_proc_3
      + 2546 pi_d_a3_a6_proc_0 + pi_d_a6_a3_proc_3 + pi_d_a6_a3_proc_0
      + 3819 pi_d_a3_a7_proc_3 + 2546 pi_d_a3_a7_proc_0 + 1274 pi_d_a7_a3_proc_3
      + pi_d_a7_a3_proc_0 + 3819 pi_d_a3_a8_proc_2 + 3819 pi_d_a3_a8_proc_3
      + 2546 pi_d_a3_a8_proc_0 + 1274 pi_d_a8_a3_proc_2 + 1274 pi_d_a8_a3_proc_3
      + pi_d_a8_a3_proc_0 + 2546 pi_d_a3_a9_proc_2 + 2546 pi_d_a3_a9_proc_3
      + 2547 pi_d_a9_a3_proc_2 + 2547 pi_d_a9_a3_proc_3 + pi_d_a9_a3_proc_0
      + 2546 pi_d_a4_a5_proc_2 + 3819 pi_d_a4_a5_proc_3 + 3819 pi_d_a4_a5_proc_0
      + pi_d_a5_a4_proc_2 + 1274 pi_d_a5_a4_proc_3 + 1274 pi_d_a5_a4_proc_0
      + 2546 pi_d_a4_a6_proc_3 + 3819 pi_d_a4_a6_proc_0 + pi_d_a6_a4_proc_3
      + 1274 pi_d_a6_a4_proc_0 + 5092 pi_d_a4_a7_proc_3 + 5092 pi_d_a4_a7_proc_0
      + pi_d_a7_a4_proc_3 + pi_d_a7_a4_proc_0 + 2547 pi_d_a4_a8_proc_2
      + 3820 pi_d_a4_a8_proc_3 + 3820 pi_d_a4_a8_proc_0 + 1273 pi_d_a8_a4_proc_3
      + 1273 pi_d_a8_a4_proc_0 + 2547 pi_d_a4_a9_proc_2 + 3820 pi_d_a4_a9_proc_3
      + 2547 pi_d_a4_a9_proc_0 + 1273 pi_d_a9_a4_proc_3 + 2547 pi_d_a5_a6_proc_3
      + 3820 pi_d_a5_a6_proc_0 + 2547 pi_d_a5_a6_proc_1 + 1273 pi_d_a6_a5_proc_0
      + 2547 pi_d_a5_a7_proc_3 + 2547 pi_d_a5_a7_proc_0 + pi_d_a5_a7_proc_1
      + 2546 pi_d_a7_a5_proc_3 + 2546 pi_d_a7_a5_proc_0 + 2547 pi_d_a5_a8_proc_2
      + 2547 pi_d_a5_a8_proc_3 + 2547 pi_d_a5_a8_proc_0 + pi_d_a5_a8_proc_1
      + 2546 pi_d_a8_a5_proc_2 + 2546 pi_d_a8_a5_proc_3 + 2546 pi_d_a8_a5_proc_0
      + 3820 pi_d_a5_a9_proc_2 + 3820 pi_d_a5_a9_proc_3 + 2547 pi_d_a5_a9_proc_0
      + 1273 pi_d_a9_a5_proc_2 + 1273 pi_d_a9_a5_proc_3 + 2546 pi_d_a6_a7_proc_3
      + 3819 pi_d_a6_a7_proc_0 + 2546 pi_d_a6_a7_proc_1 + pi_d_a7_a6_proc_3
      + 1274 pi_d_a7_a6_proc_0 + pi_d_a7_a6_proc_1 + pi_d_a6_a8_proc_3
      + 1274 pi_d_a6_a8_proc_0 + pi_d_a6_a8_proc_1 + 2546 pi_d_a8_a6_proc_3
      + 3819 pi_d_a8_a6_proc_0 + 2546 pi_d_a8_a6_proc_1 + 2547 pi_d_a6_a9_proc_3
      + 2547 pi_d_a6_a9_proc_0 + 2547 pi_d_a7_a8_proc_3 + 2547 pi_d_a7_a8_proc_0
      + pi_d_a7_a8_proc_1 + 2546 pi_d_a8_a7_proc_3 + 2546 pi_d_a8_a7_proc_0
      + 3820 pi_d_a7_a9_proc_3 + 2547 pi_d_a7_a9_proc_0 + 1273 pi_d_a9_a7_proc_3
      + 3819 pi_d_a8_a9_proc_2 + 3819 pi_d_a8_a9_proc_3 + 2546 pi_d_a8_a9_proc_0
      + 1274 pi_d_a9_a8_proc_2 + 1274 pi_d_a9_a8_proc_3 + pi_d_a9_a8_proc_0
      + pi_y2_a0_proc_1 + pi_y2_a1_proc_0 + pi_y2_a2_proc_3 + pi_y2_a3_proc_0
      + pi_y2_a4_proc_2 + pi_y2_a5_proc_1 + pi_y2_a6_proc_3 + pi_y2_a7_proc_1
      + pi_y2_a8_proc_1 + pi_y2_a9_proc_0
Subject To
 c1: pi_nr_a0 + pi_nr_a1 + pi_nr_a2 + pi_nr_a3 + pi_nr_a4 + pi_nr_a5 + pi_nr_a6
     + pi_nr_a7 + pi_nr_a8 + pi_nr_a9 - pi_y1_a0 - pi_y1_a1 - pi_y1_a2
     - pi_y1_a3 - pi_y1_a4 - pi_y1_a5 - pi_y1_a6 - pi_y1_a7 - pi_y1_a8
     - pi_y1_a9 >= 1
 c2: - pi_p_a1_a0 + pi_p_a0_a7 + pi_d_a0_a1_proc_2 + pi_d_a0_a1_proc_3
     + pi_d_a0_a1_proc_0 + pi_d_a0_a1_proc_1 - pi_d_a1_a0_proc_2
     - pi_d_a1_a0_proc_3 - pi_d_a1_a0_proc_0 - pi_d_a1_a0_proc_1
     + pi_d_a0_a2_proc_2 + pi_d_a0_a2_proc_3 + pi_d_a0_a2_proc_0
     + pi_d_a0_a2_proc_1 - pi_d_a2_a0_proc_2 - pi_d_a2_a0_proc_3
     - pi_d_a2_a0_proc_0 - pi_d_a2_a0_proc_1 + pi_d_a0_a3_proc_2
     + pi_d_a0_a3_proc_3 + pi_d_a0_a3_proc_0 - pi_d_a3_a0_proc_2
     - pi_d_a3_a0_proc_3 - pi_d_a3_a0_proc_0 + pi_d_a0_a4_proc_2
     + pi_d_a0_a4_proc_3 + pi_d_a0_a4_proc_0 - pi_d_a4_a0_proc_2
     - pi_d_a4_a0_proc_3 - pi_d_a4_a0_proc_0 + pi_d_a0_a5_proc_2
     + pi_d_a0_a5_proc_3 + pi_d_a0_a5_proc_0 + pi_d_a0_a5_proc_1
     - pi_d_a5_a0_proc_2 - pi_d_a5_a0_proc_3 - pi_d_a5_a0_proc_0
     - pi_d_a5_a0_proc_1 + pi_d_a0_a6_proc_3 + pi_d_a0_a6_proc_0
     + pi_d_a0_a6_proc_1 - pi_d_a6_a0_proc_3 - pi_d_a6_a0_proc_0
     - pi_d_a6_a0_proc_1 + pi_d_a0_a7_proc_3 + pi_d_a0_a7_proc_0
     + pi_d_a0_a7_proc_1 - pi_d_a7_a0_proc_3 - pi_d_a7_a0_proc_0
     - pi_d_a7_a0_proc_1 + pi_d_a0_a8_proc_2 + pi_d_a0_a8_proc_3
     + pi_d_a0_a8_proc_0 + pi_d_a0_a8_proc_1 - pi_d_a8_a0_proc_2
     - pi_d_a8_a0_proc_3 - pi_d_a8_a0_proc_0 - pi_d_a8_a0_proc_1
     + pi_d_a0_a9_proc_2 + pi_d_a0_a9_proc_3 + pi_d_a0_a9_proc_0
     - pi_d_a9_a0_proc_2 - pi_d_a9_a0_proc_3 - pi_d_a9_a0_proc_0 >= 0
 c3: 1070 pi_p_a0_a7 + 1070 pi_d_a0_a1_proc_0 + 1070 pi_d_a0_a2_proc_0
     + 1070 pi_d_a0_a3_proc_0 + 1070 pi_d_a0_a4_proc_0 + 1070 pi_d_a0_a5_proc_0
     + 1070 pi_d_a0_a6_proc_0 + 1070 pi_d_a0_a7_proc_0 + 1070 pi_d_a0_a8_proc_0
     + 1070 pi_d_a0_a9_proc_0 + pi_y1_a0 + pi_y2_a0_proc_0 >= 0
 c4: 791 pi_p_a0_a7 + 791 pi_d_a0_a1_proc_1 + 791 pi_d_a0_a2_proc_1
     + 791 pi_d_a0_a5_proc_1 + 791 pi_d_a0_a6_proc_1 + 791 pi_d_a0_a7_proc_1
     + 791 pi_d_a0_a8_proc_1 + pi_y1_a0 + pi_y2_a0_proc_1 >= 0
 c5: 899 pi_p_a0_a7 + 899 pi_d_a0_a1_proc_2 + 899 pi_d_a0_a2_proc_2
     + 899 pi_d_a0_a3_proc_2 + 899 pi_d_a0_a4_proc_2 + 899 pi_d_a0_a5_proc_2
     + 899 pi_d_a0_a8_proc_2 + 899 pi_d_a0_a9_proc_2 + pi_y1_a0
     + pi_y2_a0_proc_2 >= 0
 c6: 1161 pi_p_a0_a7 + 1161 pi_d_a0_a1_proc_3 + 1161 pi_d_a0_a2_proc_3
     + 1161 pi_d_a0_a3_proc_3 + 1161 pi_d_a0_a4_proc_3 + 1161 pi_d_a0_a5_proc_3
     + 1161 pi_d_a0_a6_proc_3 + 1161 pi_d_a0_a7_proc_3 + 1161 pi_d_a0_a8_proc_3
     + 1161 pi_d_a0_a9_proc_3 + pi_y1_a0 + pi_y2_a0_proc_3 >= 0
 c7: pi_p_a1_a0 - pi_p_a2_a1 - pi_p_a6_a1 - pi_p_a8_a1 - pi_d_a0_a1_proc_2
     - pi_d_a0_a1_proc_3 - pi_d_a0_a1_proc_0 - pi_d_a0_a1_proc_1
     + pi_d_a1_a0_proc_2 + pi_d_a1_a0_proc_3 + pi_d_a1_a0_proc_0
     + pi_d_a1_a0_proc_1 + pi_d_a1_a2_proc_2 + pi_d_a1_a2_proc_3
     + pi_d_a1_a2_proc_0 + pi_d_a1_a2_proc_1 - pi_d_a2_a1_proc_2
     - pi_d_a2_a1_proc_3 - pi_d_a2_a1_proc_0 - pi_d_a2_a1_proc_1
     + pi_d_a1_a3_proc_2 + pi_d_a1_a3_proc_3 + pi_d_a1_a3_proc_0
     - pi_d_a3_a1_proc_2 - pi_d_a3_a1_proc_3 - pi_d_a3_a1_proc_0
     + pi_d_a1_a4_proc_2 + pi_d_a1_a4_proc_3 + pi_d_a1_a4_proc_0
     - pi_d_a4_a1_proc_2 - pi_d_a4_a1_proc_3 - pi_d_a4_a1_proc_0
     + pi_d_a1_a5_proc_2 + pi_d_a1_a5_proc_3 + pi_d_a1_a5_proc_0
     + pi_d_a1_a5_proc_1 - pi_d_a5_a1_proc_2 - pi_d_a5_a1_proc_3
     - pi_d_a5_a1_proc_0 - pi_d_a5_a1_proc_1 + pi_d_a1_a6_proc_3
     + pi_d_a1_a6_proc_0 + pi_d_a1_a6_proc_1 - pi_d_a6_a1_proc_3
     - pi_d_a6_a1_proc_0 - pi_d_a6_a1_proc_1 + pi_d_a1_a7_proc_3
     + pi_d_a1_a7_proc_0 + pi_d_a1_a7_proc_1 - pi_d_a7_a1_proc_3
     - pi_d_a7_a1_proc_0 - pi_d_a7_a1_proc_1 + pi_d_a1_a8_proc_2
     + pi_d_a1_a8_proc_3 + pi_d_a1_a8_proc_0 + pi_d_a1_a8_proc_1
     - pi_d_a8_a1_proc_2 - pi_d_a8_a1_proc_3 - pi_d_a8_a1_proc_0
     - pi_d_a8_a1_proc_1 + pi_d_a1_a9_proc_2 + pi_d_a1_a9_proc_3
     + pi_d_a1_a9_proc_0 - pi_d_a9_a1_proc_2 - pi_d_a9_a1_proc_3
     - pi_d_a9_a1_proc_0 >= 0
 c8: 713 pi_p_a1_a0 + 713 pi_d_a1_a0_proc_0 + 713 pi_d_a1_a2_proc_0
     + 713 pi_d_a1_a3_proc_0 + 713 pi_d_a1_a4_proc_0 + 713 pi_d_a1_a5_proc_0
     + 713 pi_d_a1_a6_proc_0 + 713 pi_d_a1_a7_proc_0 + 713 pi_d_a1_a8_proc_0
     + 713 pi_d_a1_a9_proc_0 + pi_y1_a1 + pi_y2_a1_proc_0 >= 0
 c9: 778 pi_p_a1_a0 + 778 pi_d_a1_a0_proc_1 + 778 pi_d_a1_a2_proc_1
     + 778 pi_d_a1_a5_proc_1 + 778 pi_d_a1_a6_proc_1 + 778 pi_d_a1_a7_proc_1
     + 778 pi_d_a1_a8_proc_1 + pi_y1_a1 + pi_y2_a1_proc_1 >= 0
 c10: 1257 pi_p_a1_a0 + 1257 pi_d_a1_a0_proc_2 + 1257 pi_d_a1_a2_proc_2
      + 1257 pi_d_a1_a3_proc_2 + 1257 pi_d_a1_a4_proc_2 + 1257 pi_d_a1_a5_proc_2
      + 1257 pi_d_a1_a8_proc_2 + 1257 pi_d_a1_a9_proc_2 + pi_y1_a1
      + pi_y2_a1_proc_2 >= 0
 c11: 901 pi_p_a1_a0 + 901 pi_d_a1_a0_proc_3 + 901 pi_d_a1_a2_proc_3
      + 901 pi_d_a1_a3_proc_3 + 901 pi_d_a1_a4_proc_3 + 901 pi_d_a1_a5_proc_3
      + 901 pi_d_a1_a6_proc_3 + 901 pi_d_a1_a7_proc_3 + 901 pi_d_a1_a8_proc_3
      + 901 pi_d_a1_a9_proc_3 + pi_y1_a1 + pi_y2_a1_proc_3 >= 0
 c12: pi_p_a2_a1 - pi_p_a3_a2 + pi_p_a2_a6 - pi_p_a4_a2 - pi_d_a0_a2_proc_2
      - pi_d_a0_a2_proc_3 - pi_d_a0_a2_proc_0 - pi_d_a0_a2_proc_1
      + pi_d_a2_a0_proc_2 + pi_d_a2_a0_proc_3 + pi_d_a2_a0_proc_0
      + pi_d_a2_a0_proc_1 - pi_d_a1_a2_proc_2 - pi_d_a1_a2_proc_3
      - pi_d_a1_a2_proc_0 - pi_d_a1_a2_proc_1 + pi_d_a2_a1_proc_2
      + pi_d_a2_a1_proc_3 + pi_d_a2_a1_proc_0 + pi_d_a2_a1_proc_1
      + pi_d_a2_a3_proc_2 + pi_d_a2_a3_proc_3 + pi_d_a2_a3_proc_0
      - pi_d_a3_a2_proc_2 - pi_d_a3_a2_proc_3 - pi_d_a3_a2_proc_0
      + pi_d_a2_a4_proc_2 + pi_d_a2_a4_proc_3 + pi_d_a2_a4_proc_0
      - pi_d_a4_a2_proc_2 - pi_d_a4_a2_proc_3 - pi_d_a4_a2_proc_0
      + pi_d_a2_a5_proc_2 + pi_d_a2_a5_proc_3 + pi_d_a2_a5_proc_0
      + pi_d_a2_a5_proc_1 - pi_d_a5_a2_proc_2 - pi_d_a5_a2_proc_3
      - pi_d_a5_a2_proc_0 - pi_d_a5_a2_proc_1 + pi_d_a2_a6_proc_3
      + pi_d_a2_a6_proc_0 + pi_d_a2_a6_proc_1 - pi_d_a6_a2_proc_3
      - pi_d_a6_a2_proc_0 - pi_d_a6_a2_proc_1 + pi_d_a2_a7_proc_3
      + pi_d_a2_a7_proc_0 + pi_d_a2_a7_proc_1 - pi_d_a7_a2_proc_3
      - pi_d_a7_a2_proc_0 - pi_d_a7_a2_proc_1 + pi_d_a2_a8_proc_2
      + pi_d_a2_a8_proc_3 + pi_d_a2_a8_proc_0 + pi_d_a2_a8_proc_1
      - pi_d_a8_a2_proc_2 - pi_d_a8_a2_proc_3 - pi_d_a8_a2_proc_0
      - pi_d_a8_a2_proc_1 + pi_d_a2_a9_proc_2 + pi_d_a2_a9_proc_3
      + pi_d_a2_a9_proc_0 - pi_d_a9_a2_proc_2 - pi_d_a9_a2_proc_3
      - pi_d_a9_a2_proc_0 >= 0
 c13: 781 pi_p_a2_a1 + 781 pi_p_a2_a6 + 781 pi_d_a2_a0_proc_0
      + 781 pi_d_a2_a1_proc_0 + 781 pi_d_a2_a3_proc_0 + 781 pi_d_a2_a4_proc_0
      + 781 pi_d_a2_a5_proc_0 + 781 pi_d_a2_a6_proc_0 + 781 pi_d_a2_a7_proc_0
      + 781 pi_d_a2_a8_proc_0 + 781 pi_d_a2_a9_proc_0 + pi_y1_a2
      + pi_y2_a2_proc_0 >= 0
 c14: 954 pi_p_a2_a1 + 954 pi_p_a2_a6 + 954 pi_d_a2_a0_proc_1
      + 954 pi_d_a2_a1_proc_1 + 954 pi_d_a2_a5_proc_1 + 954 pi_d_a2_a6_proc_1
      + 954 pi_d_a2_a7_proc_1 + 954 pi_d_a2_a8_proc_1 + pi_y1_a2
      + pi_y2_a2_proc_1 >= 0
 c15: 1273 pi_p_a2_a1 + 1273 pi_p_a2_a6 + 1273 pi_d_a2_a0_proc_2
      + 1273 pi_d_a2_a1_proc_2 + 1273 pi_d_a2_a3_proc_2 + 1273 pi_d_a2_a4_proc_2
      + 1273 pi_d_a2_a5_proc_2 + 1273 pi_d_a2_a8_proc_2 + 1273 pi_d_a2_a9_proc_2
      + pi_y1_a2 + pi_y2_a2_proc_2 >= 0
 c16: 557 pi_p_a2_a1 + 557 pi_p_a2_a6 + 557 pi_d_a2_a0_proc_3
      + 557 pi_d_a2_a1_proc_3 + 557 pi_d_a2_a3_proc_3 + 557 pi_d_a2_a4_proc_3
      + 557 pi_d_a2_a5_proc_3 + 557 pi_d_a2_a6_proc_3 + 557 pi_d_a2_a7_proc_3
      + 557 pi_d_a2_a8_proc_3 + 557 pi_d_a2_a9_proc_3 + pi_y1_a2
      + pi_y2_a2_proc_3 >= 0
 c17: pi_p_a3_a2 + pi_p_a3_a4 - pi_p_a8_a3 - pi_p_a4_a3 - pi_d_a0_a3_proc_2
      - pi_d_a0_a3_proc_3 - pi_d_a0_a3_proc_0 + pi_d_a3_a0_proc_2
      + pi_d_a3_a0_proc_3 + pi_d_a3_a0_proc_0 - pi_d_a1_a3_proc_2
      - pi_d_a1_a3_proc_3 - pi_d_a1_a3_proc_0 + pi_d_a3_a1_proc_2
      + pi_d_a3_a1_proc_3 + pi_d_a3_a1_proc_0 - pi_d_a2_a3_proc_2
      - pi_d_a2_a3_proc_3 - pi_d_a2_a3_proc_0 + pi_d_a3_a2_proc_2
      + pi_d_a3_a2_proc_3 + pi_d_a3_a2_proc_0 + pi_d_a3_a4_proc_2
      + pi_d_a3_a4_proc_3 + pi_d_a3_a4_proc_0 - pi_d_a4_a3_proc_2
      - pi_d_a4_a3_proc_3 - pi_d_a4_a3_proc_0 + pi_d_a3_a5_proc_2
      + pi_d_a3_a5_proc_3 + pi_d_a3_a5_proc_0 - pi_d_a5_a3_proc_2
      - pi_d_a5_a3_proc_3 - pi_d_a5_a3_proc_0 + pi_d_a3_a6_proc_3
      + pi_d_a3_a6_proc_0 - pi_d_a6_a3_proc_3 - pi_d_a6_a3_proc_0
      + pi_d_a3_a7_proc_3 + pi_d_a3_a7_proc_0 - pi_d_a7_a3_proc_3
      - pi_d_a7_a3_proc_0 + pi_d_a3_a8_proc_2 + pi_d_a3_a8_proc_3
      + pi_d_a3_a8_proc_0 - pi_d_a8_a3_proc_2 - pi_d_a8_a3_proc_3
      - pi_d_a8_a3_proc_0 + pi_d_a3_a9_proc_2 + pi_d_a3_a9_proc_3
      + pi_d_a3_a9_proc_0 - pi_d_a9_a3_proc_2 - pi_d_a9_a3_proc_3
      - pi_d_a9_a3_proc_0 >= 0
 c18: 1029 pi_p_a3_a2 + 1029 pi_p_a3_a4 + 1029 pi_d_a3_a0_proc_0
      + 1029 pi_d_a3_a1_proc_0 + 1029 pi_d_a3_a2_proc_0 + 1029 pi_d_a3_a4_proc_0
      + 1029 pi_d_a3_a5_proc_0 + 1029 pi_d_a3_a6_proc_0 + 1029 pi_d_a3_a7_proc_0
      + 1029 pi_d_a3_a8_proc_0 + 1029 pi_d_a3_a9_proc_0 + pi_y1_a3
      + pi_y2_a3_proc_0 >= 0
 c19: 1234 pi_p_a3_a2 + 1234 pi_p_a3_a4 + 1234 pi_d_a3_a0_proc_2
      + 1234 pi_d_a3_a1_proc_2 + 1234 pi_d_a3_a2_proc_2 + 1234 pi_d_a3_a4_proc_2
      + 1234 pi_d_a3_a5_proc_2 + 1234 pi_d_a3_a8_proc_2 + 1234 pi_d_a3_a9_proc_2
      + pi_y1_a3 + pi_y2_a3_proc_2 >= 0
 c20: 1145 pi_p_a3_a2 + 1145 pi_p_a3_a4 + 1145 pi_d_a3_a0_proc_3
      + 1145 pi_d_a3_a1_proc_3 + 1145 pi_d_a3_a2_proc_3 + 1145 pi_d_a3_a4_proc_3
      + 1145 pi_d_a3_a5_proc_3 + 1145 pi_d_a3_a6_proc_3 + 1145 pi_d_a3_a7_proc_3
      + 1145 pi_d_a3_a8_proc_3 + 1145 pi_d_a3_a9_proc_3 + pi_y1_a3
      + pi_y2_a3_proc_3 >= 0
 c21: - pi_p_a3_a4 + pi_p_a4_a5 - pi_p_a7_a4 + pi_p_a4_a2 + pi_p_a4_a3
      - pi_d_a0_a4_proc_2 - pi_d_a0_a4_proc_3 - pi_d_a0_a4_proc_0
      + pi_d_a4_a0_proc_2 + pi_d_a4_a0_proc_3 + pi_d_a4_a0_proc_0
      - pi_d_a1_a4_proc_2 - pi_d_a1_a4_proc_3 - pi_d_a1_a4_proc_0
      + pi_d_a4_a1_proc_2 + pi_d_a4_a1_proc_3 + pi_d_a4_a1_proc_0
      - pi_d_a2_a4_proc_2 - pi_d_a2_a4_proc_3 - pi_d_a2_a4_proc_0
      + pi_d_a4_a2_proc_2 + pi_d_a4_a2_proc_3 + pi_d_a4_a2_proc_0
      - pi_d_a3_a4_proc_2 - pi_d_a3_a4_proc_3 - pi_d_a3_a4_proc_0
      + pi_d_a4_a3_proc_2 + pi_d_a4_a3_proc_3 + pi_d_a4_a3_proc_0
      + pi_d_a4_a5_proc_2 + pi_d_a4_a5_proc_3 + pi_d_a4_a5_proc_0
      - pi_d_a5_a4_proc_2 - pi_d_a5_a4_proc_3 - pi_d_a5_a4_proc_0
      + pi_d_a4_a6_proc_3 + pi_d_a4_a6_proc_0 - pi_d_a6_a4_proc_3
      - pi_d_a6_a4_proc_0 + pi_d_a4_a7_proc_3 + pi_d_a4_a7_proc_0
      - pi_d_a7_a4_proc_3 - pi_d_a7_a4_proc_0 + pi_d_a4_a8_proc_2
      + pi_d_a4_a8_proc_3 + pi_d_a4_a8_proc_0 - pi_d_a8_a4_proc_2
      - pi_d_a8_a4_proc_3 - pi_d_a8_a4_proc_0 + pi_d_a4_a9_proc_2
      + pi_d_a4_a9_proc_3 + pi_d_a4_a9_proc_0 - pi_d_a9_a4_proc_2
      - pi_d_a9_a4_proc_3 - pi_d_a9_a4_proc_0 >= 0
 c22: 1251 pi_p_a4_a5 + 1251 pi_p_a4_a2 + 1251 pi_p_a4_a3
      + 1251 pi_d_a4_a0_proc_0 + 1251 pi_d_a4_a1_proc_0 + 1251 pi_d_a4_a2_proc_0
      + 1251 pi_d_a4_a3_proc_0 + 1251 pi_d_a4_a5_proc_0 + 1251 pi_d_a4_a6_proc_0
      + 1251 pi_d_a4_a7_proc_0 + 1251 pi_d_a4_a8_proc_0 + 1251 pi_d_a4_a9_proc_0
      + pi_y1_a4 + pi_y2_a4_proc_0 >= 0
 c23: 887 pi_p_a4_a5 + 887 pi_p_a4_a2 + 887 pi_p_a4_a3 + 887 pi_d_a4_a0_proc_2
      + 887 pi_d_a4_a1_proc_2 + 887 pi_d_a4_a2_proc_2 + 887 pi_d_a4_a3_proc_2
      + 887 pi_d_a4_a5_proc_2 + 887 pi_d_a4_a8_proc_2 + 887 pi_d_a4_a9_proc_2
      + pi_y1_a4 + pi_y2_a4_proc_2 >= 0
 c24: 913 pi_p_a4_a5 + 913 pi_p_a4_a2 + 913 pi_p_a4_a3 + 913 pi_d_a4_a0_proc_3
      + 913 pi_d_a4_a1_proc_3 + 913 pi_d_a4_a2_proc_3 + 913 pi_d_a4_a3_proc_3
      + 913 pi_d_a4_a5_proc_3 + 913 pi_d_a4_a6_proc_3 + 913 pi_d_a4_a7_proc_3
      + 913 pi_d_a4_a8_proc_3 + 913 pi_d_a4_a9_proc_3 + pi_y1_a4
      + pi_y2_a4_proc_3 >= 0
 c25: - pi_p_a4_a5 + pi_p_a5_a8 + pi_p_a5_a9 - pi_p_a9_a5 - pi_d_a0_a5_proc_2
      - pi_d_a0_a5_proc_3 - pi_d_a0_a5_proc_0 - pi_d_a0_a5_proc_1
      + pi_d_a5_a0_proc_2 + pi_d_a5_a0_proc_3 + pi_d_a5_a0_proc_0
      + pi_d_a5_a0_proc_1 - pi_d_a1_a5_proc_2 - pi_d_a1_a5_proc_3
      - pi_d_a1_a5_proc_0 - pi_d_a1_a5_proc_1 + pi_d_a5_a1_proc_2
      + pi_d_a5_a1_proc_3 + pi_d_a5_a1_proc_0 + pi_d_a5_a1_proc_1
      - pi_d_a2_a5_proc_2 - pi_d_a2_a5_proc_3 - pi_d_a2_a5_proc_0
      - pi_d_a2_a5_proc_1 + pi_d_a5_a2_proc_2 + pi_d_a5_a2_proc_3
      + pi_d_a5_a2_proc_0 + pi_d_a5_a2_proc_1 - pi_d_a3_a5_proc_2
      - pi_d_a3_a5_proc_3 - pi_d_a3_a5_proc_0 + pi_d_a5_a3_proc_2
      + pi_d_a5_a3_proc_3 + pi_d_a5_a3_proc_0 - pi_d_a4_a5_proc_2
      - pi_d_a4_a5_proc_3 - pi_d_a4_a5_proc_0 + pi_d_a5_a4_proc_2
      + pi_d_a5_a4_proc_3 + pi_d_a5_a4_proc_0 + pi_d_a5_a6_proc_3
      + pi_d_a5_a6_proc_0 + pi_d_a5_a6_proc_1 - pi_d_a6_a5_proc_3
      - pi_d_a6_a5_proc_0 - pi_d_a6_a5_proc_1 + pi_d_a5_a7_proc_3
      + pi_d_a5_a7_proc_0 + pi_d_a5_a7_proc_1 - pi_d_a7_a5_proc_3
      - pi_d_a7_a5_proc_0 - pi_d_a7_a5_proc_1 + pi_d_a5_a8_proc_2
      + pi_d_a5_a8_proc_3 + pi_d_a5_a8_proc_0 + pi_d_a5_a8_proc_1
      - pi_d_a8_a5_proc_2 - pi_d_a8_a5_proc_3 - pi_d_a8_a5_proc_0
      - pi_d_a8_a5_proc_1 + pi_d_a5_a9_proc_2 + pi_d_a5_a9_proc_3
      + pi_d_a5_a9_proc_0 - pi_d_a9_a5_proc_2 - pi_d_a9_a5_proc_3
      - pi_d_a9_a5_proc_0 >= 0
 c26: 905 pi_p_a5_a8 + 905 pi_p_a5_a9 + 905 pi_d_a5_a0_proc_0
      + 905 pi_d_a5_a1_proc_0 + 905 pi_d_a5_a2_proc_0 + 905 pi_d_a5_a3_proc_0
      + 905 pi_d_a5_a4_proc_0 + 905 pi_d_a5_a6_proc_0 + 905 pi_d_a5_a7_proc_0
      + 905 pi_d_a5_a8_proc_0 + 905 pi_d_a5_a9_proc_0 + pi_y1_a5
      + pi_y2_a5_proc_0 >= 0
 c27: 1066 pi_p_a5_a8 + 1066 pi_p_a5_a9 + 1066 pi_d_a5_a0_proc_1
      + 1066 pi_d_a5_a1_proc_1 + 1066 pi_d_a5_a2_proc_1 + 1066 pi_d_a5_a6_proc_1
      + 1066 pi_d_a5_a7_proc_1 + 1066 pi_d_a5_a8_proc_1 + pi_y1_a5
      + pi_y2_a5_proc_1 >= 0
 c28: 885 pi_p_a5_a8 + 885 pi_p_a5_a9 + 885 pi_d_a5_a0_proc_2
      + 885 pi_d_a5_a1_proc_2 + 885 pi_d_a5_a2_proc_2 + 885 pi_d_a5_a3_proc_2
      + 885 pi_d_a5_a4_proc_2 + 885 pi_d_a5_a8_proc_2 + 885 pi_d_a5_a9_proc_2
      + pi_y1_a5 + pi_y2_a5_proc_2 >= 0
 c29: 1212 pi_p_a5_a8 + 1212 pi_p_a5_a9 + 1212 pi_d_a5_a0_proc_3
      + 1212 pi_d_a5_a1_proc_3 + 1212 pi_d_a5_a2_proc_3 + 1212 pi_d_a5_a3_proc_3
      + 1212 pi_d_a5_a4_proc_3 + 1212 pi_d_a5_a6_proc_3 + 1212 pi_d_a5_a7_proc_3
      + 1212 pi_d_a5_a8_proc_3 + 1212 pi_d_a5_a9_proc_3 + pi_y1_a5
      + pi_y2_a5_proc_3 >= 0
 c30: pi_p_a6_a1 - pi_p_a2_a6 - pi_p_a9_a6 + pi_p_a6_a9 - pi_d_a0_a6_proc_3
      - pi_d_a0_a6_proc_0 - pi_d_a0_a6_proc_1 + pi_d_a6_a0_proc_3
      + pi_d_a6_a0_proc_0 + pi_d_a6_a0_proc_1 - pi_d_a1_a6_proc_3
      - pi_d_a1_a6_proc_0 - pi_d_a1_a6_proc_1 + pi_d_a6_a1_proc_3
      + pi_d_a6_a1_proc_0 + pi_d_a6_a1_proc_1 - pi_d_a2_a6_proc_3
      - pi_d_a2_a6_proc_0 - pi_d_a2_a6_proc_1 + pi_d_a6_a2_proc_3
      + pi_d_a6_a2_proc_0 + pi_d_a6_a2_proc_1 - pi_d_a3_a6_proc_3
      - pi_d_a3_a6_proc_0 + pi_d_a6_a3_proc_3 + pi_d_a6_a3_proc_0
      - pi_d_a4_a6_proc_3 - pi_d_a4_a6_proc_0 + pi_d_a6_a4_proc_3
      + pi_d_a6_a4_proc_0 - pi_d_a5_a6_proc_3 - pi_d_a5_a6_proc_0
      - pi_d_a5_a6_proc_1 + pi_d_a6_a5_proc_3 + pi_d_a6_a5_proc_0
      + pi_d_a6_a5_proc_1 + pi_d_a6_a7_proc_3 + pi_d_a6_a7_proc_0
      + pi_d_a6_a7_proc_1 - pi_d_a7_a6_proc_3 - pi_d_a7_a6_proc_0
      - pi_d_a7_a6_proc_1 + pi_d_a6_a8_proc_3 + pi_d_a6_a8_proc_0
      + pi_d_a6_a8_proc_1 - pi_d_a8_a6_proc_3 - pi_d_a8_a6_proc_0
      - pi_d_a8_a6_proc_1 + pi_d_a6_a9_proc_3 + pi_d_a6_a9_proc_0
      - pi_d_a9_a6_proc_3 - pi_d_a9_a6_proc_0 >= 0
 c31: 937 pi_p_a6_a1 + 937 pi_p_a6_a9 + 937 pi_d_a6_a0_proc_0
      + 937 pi_d_a6_a1_proc_0 + 937 pi_d_a6_a2_proc_0 + 937 pi_d_a6_a3_proc_0
      + 937 pi_d_a6_a4_proc_0 + 937 pi_d_a6_a5_proc_0 + 937 pi_d_a6_a7_proc_0
      + 937 pi_d_a6_a8_proc_0 + 937 pi_d_a6_a9_proc_0 + pi_y1_a6
      + pi_y2_a6_proc_0 >= 0
 c32: 379 pi_p_a6_a1 + 379 pi_p_a6_a9 + 379 pi_d_a6_a0_proc_1
      + 379 pi_d_a6_a1_proc_1 + 379 pi_d_a6_a2_proc_1 + 379 pi_d_a6_a5_proc_1
      + 379 pi_d_a6_a7_proc_1 + 379 pi_d_a6_a8_proc_1 + pi_y1_a6
      + pi_y2_a6_proc_1 >= 0
 c33: 808 pi_p_a6_a1 + 808 pi_p_a6_a9 + 808 pi_d_a6_a0_proc_3
      + 808 pi_d_a6_a1_proc_3 + 808 pi_d_a6_a2_proc_3 + 808 pi_d_a6_a3_proc_3
      + 808 pi_d_a6_a4_proc_3 + 808 pi_d_a6_a5_proc_3 + 808 pi_d_a6_a7_proc_3
      + 808 pi_d_a6_a8_proc_3 + 808 pi_d_a6_a9_proc_3 + pi_y1_a6
      + pi_y2_a6_proc_3 >= 0
 c34: pi_p_a7_a4 - pi_p_a0_a7 - pi_d_a0_a7_proc_3 - pi_d_a0_a7_proc_0
      - pi_d_a0_a7_proc_1 + pi_d_a7_a0_proc_3 + pi_d_a7_a0_proc_0
      + pi_d_a7_a0_proc_1 - pi_d_a1_a7_proc_3 - pi_d_a1_a7_proc_0
      - pi_d_a1_a7_proc_1 + pi_d_a7_a1_proc_3 + pi_d_a7_a1_proc_0
      + pi_d_a7_a1_proc_1 - pi_d_a2_a7_proc_3 - pi_d_a2_a7_proc_0
      - pi_d_a2_a7_proc_1 + pi_d_a7_a2_proc_3 + pi_d_a7_a2_proc_0
      + pi_d_a7_a2_proc_1 - pi_d_a3_a7_proc_3 - pi_d_a3_a7_proc_0
      + pi_d_a7_a3_proc_3 + pi_d_a7_a3_proc_0 - pi_d_a4_a7_proc_3
      - pi_d_a4_a7_proc_0 + pi_d_a7_a4_proc_3 + pi_d_a7_a4_proc_0
      - pi_d_a5_a7_proc_3 - pi_d_a5_a7_proc_0 - pi_d_a5_a7_proc_1
      + pi_d_a7_a5_proc_3 + pi_d_a7_a5_proc_0 + pi_d_a7_a5_proc_1
      - pi_d_a6_a7_proc_3 - pi_d_a6_a7_proc_0 - pi_d_a6_a7_proc_1
      + pi_d_a7_a6_proc_3 + pi_d_a7_a6_proc_0 + pi_d_a7_a6_proc_1
      + pi_d_a7_a8_proc_3 + pi_d_a7_a8_proc_0 + pi_d_a7_a8_proc_1
      - pi_d_a8_a7_proc_3 - pi_d_a8_a7_proc_0 - pi_d_a8_a7_proc_1
      + pi_d_a7_a9_proc_3 + pi_d_a7_a9_proc_0 - pi_d_a9_a7_proc_3
      - pi_d_a9_a7_proc_0 >= 0
 c35: 1219 pi_p_a7_a4 + 1219 pi_d_a7_a0_proc_0 + 1219 pi_d_a7_a1_proc_0
      + 1219 pi_d_a7_a2_proc_0 + 1219 pi_d_a7_a3_proc_0 + 1219 pi_d_a7_a4_proc_0
      + 1219 pi_d_a7_a5_proc_0 + 1219 pi_d_a7_a6_proc_0 + 1219 pi_d_a7_a8_proc_0
      + 1219 pi_d_a7_a9_proc_0 + pi_y1_a7 + pi_y2_a7_proc_0 >= 0
 c36: 974 pi_p_a7_a4 + 974 pi_d_a7_a0_proc_1 + 974 pi_d_a7_a1_proc_1
      + 974 pi_d_a7_a2_proc_1 + 974 pi_d_a7_a5_proc_1 + 974 pi_d_a7_a6_proc_1
      + 974 pi_d_a7_a8_proc_1 + pi_y1_a7 + pi_y2_a7_proc_1 >= 0
 c37: 1242 pi_p_a7_a4 + 1242 pi_d_a7_a0_proc_3 + 1242 pi_d_a7_a1_proc_3
      + 1242 pi_d_a7_a2_proc_3 + 1242 pi_d_a7_a3_proc_3 + 1242 pi_d_a7_a4_proc_3
      + 1242 pi_d_a7_a5_proc_3 + 1242 pi_d_a7_a6_proc_3 + 1242 pi_d_a7_a8_proc_3
      + 1242 pi_d_a7_a9_proc_3 + pi_y1_a7 + pi_y2_a7_proc_3 >= 0
 c38: - pi_p_a5_a8 + pi_p_a8_a3 + pi_p_a8_a9 + pi_p_a8_a1 - pi_d_a0_a8_proc_2
      - pi_d_a0_a8_proc_3 - pi_d_a0_a8_proc_0 - pi_d_a0_a8_proc_1
      + pi_d_a8_a0_proc_2 + pi_d_a8_a0_proc_3 + pi_d_a8_a0_proc_0
      + pi_d_a8_a0_proc_1 - pi_d_a1_a8_proc_2 - pi_d_a1_a8_proc_3
      - pi_d_a1_a8_proc_0 - pi_d_a1_a8_proc_1 + pi_d_a8_a1_proc_2
      + pi_d_a8_a1_proc_3 + pi_d_a8_a1_proc_0 + pi_d_a8_a1_proc_1
      - pi_d_a2_a8_proc_2 - pi_d_a2_a8_proc_3 - pi_d_a2_a8_proc_0
      - pi_d_a2_a8_proc_1 + pi_d_a8_a2_proc_2 + pi_d_a8_a2_proc_3
      + pi_d_a8_a2_proc_0 + pi_d_a8_a2_proc_1 - pi_d_a3_a8_proc_2
      - pi_d_a3_a8_proc_3 - pi_d_a3_a8_proc_0 + pi_d_a8_a3_proc_2
      + pi_d_a8_a3_proc_3 + pi_d_a8_a3_proc_0 - pi_d_a4_a8_proc_2
      - pi_d_a4_a8_proc_3 - pi_d_a4_a8_proc_0 + pi_d_a8_a4_proc_2
      + pi_d_a8_a4_proc_3 + pi_d_a8_a4_proc_0 - pi_d_a5_a8_proc_2
      - pi_d_a5_a8_proc_3 - pi_d_a5_a8_proc_0 - pi_d_a5_a8_proc_1
      + pi_d_a8_a5_proc_2 + pi_d_a8_a5_proc_3 + pi_d_a8_a5_proc_0
      + pi_d_a8_a5_proc_1 - pi_d_a6_a8_proc_3 - pi_d_a6_a8_proc_0
      - pi_d_a6_a8_proc_1 + pi_d_a8_a6_proc_3 + pi_d_a8_a6_proc_0
      + pi_d_a8_a6_proc_1 - pi_d_a7_a8_proc_3 - pi_d_a7_a8_proc_0
      - pi_d_a7_a8_proc_1 + pi_d_a8_a7_proc_3 + pi_d_a8_a7_proc_0
      + pi_d_a8_a7_proc_1 + pi_d_a8_a9_proc_2 + pi_d_a8_a9_proc_3
      + pi_d_a8_a9_proc_0 - pi_d_a9_a8_proc_2 - pi_d_a9_a8_proc_3
      - pi_d_a9_a8_proc_0 >= 0
 c39: 962 pi_p_a8_a3 + 962 pi_p_a8_a9 + 962 pi_p_a8_a1 + 962 pi_d_a8_a0_proc_0
      + 962 pi_d_a8_a1_proc_0 + 962 pi_d_a8_a2_proc_0 + 962 pi_d_a8_a3_proc_0
      + 962 pi_d_a8_a4_proc_0 + 962 pi_d_a8_a5_proc_0 + 962 pi_d_a8_a6_proc_0
      + 962 pi_d_a8_a7_proc_0 + 962 pi_d_a8_a9_proc_0 + pi_y1_a8
      + pi_y2_a8_proc_0 >= 0
 c40: 1043 pi_p_a8_a3 + 1043 pi_p_a8_a9 + 1043 pi_p_a8_a1
      + 1043 pi_d_a8_a0_proc_1 + 1043 pi_d_a8_a1_proc_1 + 1043 pi_d_a8_a2_proc_1
      + 1043 pi_d_a8_a5_proc_1 + 1043 pi_d_a8_a6_proc_1 + 1043 pi_d_a8_a7_proc_1
      + pi_y1_a8 + pi_y2_a8_proc_1 >= 0
 c41: 1109 pi_p_a8_a3 + 1109 pi_p_a8_a9 + 1109 pi_p_a8_a1
      + 1109 pi_d_a8_a0_proc_2 + 1109 pi_d_a8_a1_proc_2 + 1109 pi_d_a8_a2_proc_2
      + 1109 pi_d_a8_a3_proc_2 + 1109 pi_d_a8_a4_proc_2 + 1109 pi_d_a8_a5_proc_2
      + 1109 pi_d_a8_a9_proc_2 + pi_y1_a8 + pi_y2_a8_proc_2 >= 0
 c42: 810 pi_p_a8_a3 + 810 pi_p_a8_a9 + 810 pi_p_a8_a1 + 810 pi_d_a8_a0_proc_3
      + 810 pi_d_a8_a1_proc_3 + 810 pi_d_a8_a2_proc_3 + 810 pi_d_a8_a3_proc_3
      + 810 pi_d_a8_a4_proc_3 + 810 pi_d_a8_a5_proc_3 + 810 pi_d_a8_a6_proc_3
      + 810 pi_d_a8_a7_proc_3 + 810 pi_d_a8_a9_proc_3 + pi_y1_a8
      + pi_y2_a8_proc_3 >= 0
 c43: - pi_p_a5_a9 + pi_p_a9_a5 + pi_p_a9_a6 - pi_p_a8_a9 - pi_p_a6_a9
      - pi_d_a0_a9_proc_2 - pi_d_a0_a9_proc_3 - pi_d_a0_a9_proc_0
      + pi_d_a9_a0_proc_2 + pi_d_a9_a0_proc_3 + pi_d_a9_a0_proc_0
      - pi_d_a1_a9_proc_2 - pi_d_a1_a9_proc_3 - pi_d_a1_a9_proc_0
      + pi_d_a9_a1_proc_2 + pi_d_a9_a1_proc_3 + pi_d_a9_a1_proc_0
      - pi_d_a2_a9_proc_2 - pi_d_a2_a9_proc_3 - pi_d_a2_a9_proc_0
      + pi_d_a9_a2_proc_2 + pi_d_a9_a2_proc_3 + pi_d_a9_a2_proc_0
      - pi_d_a3_a9_proc_2 - pi_d_a3_a9_proc_3 - pi_d_a3_a9_proc_0
      + pi_d_a9_a3_proc_2 + pi_d_a9_a3_proc_3 + pi_d_a9_a3_proc_0
      - pi_d_a4_a9_proc_2 - pi_d_a4_a9_proc_3 - pi_d_a4_a9_proc_0
      + pi_d_a9_a4_proc_2 + pi_d_a9_a4_proc_3 + pi_d_a9_a4_proc_0
      - pi_d_a5_a9_proc_2 - pi_d_a5_a9_proc_3 - pi_d_a5_a9_proc_0
      + pi_d_a9_a5_proc_2 + pi_d_a9_a5_proc_3 + pi_d_a9_a5_proc_0
      - pi_d_a6_a9_proc_3 - pi_d_a6_a9_proc_0 + pi_d_a9_a6_proc_3
      + pi_d_a9_a6_proc_0 - pi_d_a7_a9_proc_3 - pi_d_a7_a9_proc_0
      + pi_d_a9_a7_proc_3 + pi_d_a9_a7_proc_0 - pi_d_a8_a9_proc_2
      - pi_d_a8_a9_proc_3 - pi_d_a8_a9_proc_0 + pi_d_a9_a8_proc_2
      + pi_d_a9_a8_proc_3 + pi_d_a9_a8_proc_0 >= 0
 c44: 739 pi_p_a9_a5 + 739 pi_p_a9_a6 + 739 pi_d_a9_a0_proc_0
      + 739 pi_d_a9_a1_proc_0 + 739 pi_d_a9_a2_proc_0 + 739 pi_d_a9_a3_proc_0
      + 739 pi_d_a9_a4_proc_0 + 739 pi_d_a9_a5_proc_0 + 739 pi_d_a9_a6_proc_0
      + 739 pi_d_a9_a7_proc_0 + 739 pi_d_a9_a8_proc_0 + pi_y1_a9
      + pi_y2_a9_proc_0 >= 0
 c45: 1202 pi_p_a9_a5 + 1202 pi_p_a9_a6 + 1202 pi_d_a9_a0_proc_2
      + 1202 pi_d_a9_a1_proc_2 + 1202 pi_d_a9_a2_proc_2 + 1202 pi_d_a9_a3_proc_2
      + 1202 pi_d_a9_a4_proc_2 + 1202 pi_d_a9_a5_proc_2 + 1202 pi_d_a9_a8_proc_2
      + pi_y1_a9 + pi_y2_a9_proc_2 >= 0
 c46: 1051 pi_p_a9_a5 + 1051 pi_p_a9_a6 + 1051 pi_d_a9_a0_proc_3
      + 1051 pi_d_a9_a1_proc_3 + 1051 pi_d_a9_a2_proc_3 + 1051 pi_d_a9_a3_proc_3
      + 1051 pi_d_a9_a4_proc_3 + 1051 pi_d_a9_a5_proc_3 + 1051 pi_d_a9_a6_proc_3
      + 1051 pi_d_a9_a7_proc_3 + 1051 pi_d_a9_a8_proc_3 + pi_y1_a9
      + pi_y2_a9_proc_3 >= 0

Bounds
       pi_y1_a0 Free
       pi_y1_a1 Free
       pi_y1_a2 Free
       pi_y1_a3 Free
       pi_y1_a4 Free
       pi_y1_a5 Free
       pi_y1_a6 Free
       pi_y1_a7 Free
       pi_y1_a8 Free
       pi_y1_a9 Free
End
