benchmark/results/graph__10-1000-0.10-04_9/graph__10-1000-0.10-04_9_Quinton_Benders_sub.txt
solution for: Quinton Benders_dual_sub
objective: 0.000201979
status: OPTIMAL_SOLUTION(2)
pi_p_a1_a0=0.000
pi_p_a2_a1=0.000
pi_p_a7_a4=0.000
pi_p_a4_a3=0.000
pi_d_a0_a7_proc_1=0.000
pi_d_a3_a2_proc_0=0.000
pi_y1_a0=-0.160
pi_y1_a1=-0.144
pi_y1_a2=-0.113
pi_y1_a3=-0.208
pi_y1_a4=-0.179
pi_y1_a7=-0.197
pi_y2_a0_proc_0=0.160
pi_y2_a0_proc_2=0.160
pi_y2_a0_proc_3=0.160
pi_y2_a3_proc_2=0.208
pi_y2_a3_proc_3=0.208
